% demand
num_movements = 33;
loading_factor = [1350, 950, 1850, 950, 850, 2000, 1850, 1200, 1300, 1550, 1700, 1000, 1000, 1650, 900, 850, 1600, 1650, 1200, 1450, 900, 1700, 800, 1150, 1700, 1900, 850, 1800, 850, 1650, 950, 1550, 1800];
pickup_time = [0, 0, 0, 0, 0, 0, 0, 0, 1, 1, 2, 2, 2, 2, 2, 2, 3, 3, 3, 3, 4, 4, 6, 6, 6, 6, 6, 6, 6, 7, 7, 7, 7];
delivery_time = [2, 1, 2, 2, 1, 1, 2, 1, 2, 2, 7, 3, 3, 4, 3, 3, 5, 6, 6, 6, 5, 6, 7, 7, 7, 7, 8, 7, 7, 8, 8, 8, 8];

% transporter definition
total_capacity = 11000;
num_decks = 4;
capacity = [3000, 3000, 1000, 4000];

% ways out of decks
num_ways_out = 2;
paths_out = array3d(decks, ways_out, decks, [
% ways out of deck d1
2, 4, 0, 0, 3, 4, 0, 0, 

% ways out of deck d2
4, 0, 0, 0, 0, 0, 0, 0,	

% ways out of deck d3
4, 0, 0, 0, 0, 0, 0, 0,	

% ways out of deck d4
0, 0, 0, 0,	0, 0, 0, 0,	

]);

